30 44 
1 3 1
1 26 1
1 15 1
2 27 1
3 14 1
3 9 1
4 26 1
4 13 1
4 9 1
5 15 1
5 27 1
5 11 1
5 23 1
5 24 1
5 7 1
6 20 1
6 11 1
8 19 1
8 29 1
9 17 1
9 30 1
10 19 1
10 14 1
11 21 1
11 29 1
12 16 1
12 15 1
13 24 1
14 26 1
14 30 1
14 27 1
15 16 1
15 18 1
16 22 1
16 19 1
17 22 1
18 26 1
22 27 1
22 30 1
24 26 1
25 29 1
27 30 1
27 29 1
28 29 1
